NAME : in_house_9_20
TYPE : TSP
DIMENSION : 9
EDGE_WEIGHT_TYPE : EXPLICIT
EDGE_WEIGHT_FORMAT : UPPER_ROW
COMMENT : INVERSION_SHIFT=8
EDGE_WEIGHT_SECTION
43
63
49
6
24
29
51
51
24
72
4
67
47
38
52
7
62
15
43
55
48
76
7
53
10
59
26
63
69
2
73
36
10
24
63
51
